926744
0,47,36,73,31,59,30,61,92,48,9,55,17,40,5,74,68,76,29,95,20,19,8,32,56,46,94,72,21,83,91,38,13,6,65,3,80,85,44,86,75,37,79,98,67,62,12,71,54,43,90,52,7,88,84,2,4,63,26,1,34,41,96,35,49,87,82,14,60,66,81,57,15,45,27,10,22,97,53,64,51,42,23,18,16,25,93,28,78,77,24,50,39,11,58,89,33,70,69
